; benchmark generated from python API
(set-info :status unknown)
(declare-fun cell_1_7 () Int)
(declare-fun cell_1_8 () Int)
(declare-fun cell_2_2 () Int)
(declare-fun cell_2_3 () Int)
(declare-fun cell_3_5 () Int)
(declare-fun cell_3_6 () Int)
(declare-fun cell_4_1 () Int)
(declare-fun cell_4_2 () Int)
(declare-fun cell_5_7 () Int)
(declare-fun cell_5_9 () Int)
(declare-fun cell_6_4 () Int)
(declare-fun cell_6_6 () Int)
(declare-fun cell_7_1 () Int)
(declare-fun cell_7_5 () Int)
(declare-fun cell_8_3 () Int)
(declare-fun cell_8_4 () Int)
(declare-fun cell_9_9 () Int)
(declare-fun cell_1_1 () Int)
(declare-fun cell_2_1 () Int)
(declare-fun cell_3_1 () Int)
(declare-fun cell_5_1 () Int)
(declare-fun cell_6_1 () Int)
(declare-fun cell_8_1 () Int)
(declare-fun cell_9_1 () Int)
(declare-fun cell_1_2 () Int)
(declare-fun cell_3_2 () Int)
(declare-fun cell_5_2 () Int)
(declare-fun cell_6_2 () Int)
(declare-fun cell_7_2 () Int)
(declare-fun cell_8_2 () Int)
(declare-fun cell_9_2 () Int)
(declare-fun cell_1_3 () Int)
(declare-fun cell_3_3 () Int)
(declare-fun cell_4_3 () Int)
(declare-fun cell_5_3 () Int)
(declare-fun cell_6_3 () Int)
(declare-fun cell_7_3 () Int)
(declare-fun cell_9_3 () Int)
(declare-fun cell_1_4 () Int)
(declare-fun cell_2_4 () Int)
(declare-fun cell_3_4 () Int)
(declare-fun cell_4_4 () Int)
(declare-fun cell_5_4 () Int)
(declare-fun cell_7_4 () Int)
(declare-fun cell_9_4 () Int)
(declare-fun cell_1_5 () Int)
(declare-fun cell_2_5 () Int)
(declare-fun cell_4_5 () Int)
(declare-fun cell_5_5 () Int)
(declare-fun cell_6_5 () Int)
(declare-fun cell_8_5 () Int)
(declare-fun cell_9_5 () Int)
(declare-fun cell_1_6 () Int)
(declare-fun cell_2_6 () Int)
(declare-fun cell_4_6 () Int)
(declare-fun cell_5_6 () Int)
(declare-fun cell_7_6 () Int)
(declare-fun cell_8_6 () Int)
(declare-fun cell_9_6 () Int)
(declare-fun cell_2_7 () Int)
(declare-fun cell_3_7 () Int)
(declare-fun cell_4_7 () Int)
(declare-fun cell_6_7 () Int)
(declare-fun cell_7_7 () Int)
(declare-fun cell_8_7 () Int)
(declare-fun cell_9_7 () Int)
(declare-fun cell_2_8 () Int)
(declare-fun cell_3_8 () Int)
(declare-fun cell_4_8 () Int)
(declare-fun cell_5_8 () Int)
(declare-fun cell_6_8 () Int)
(declare-fun cell_7_8 () Int)
(declare-fun cell_8_8 () Int)
(declare-fun cell_9_8 () Int)
(declare-fun cell_1_9 () Int)
(declare-fun cell_2_9 () Int)
(declare-fun cell_3_9 () Int)
(declare-fun cell_4_9 () Int)
(declare-fun cell_6_9 () Int)
(declare-fun cell_7_9 () Int)
(declare-fun cell_8_9 () Int)
(assert
 (= cell_1_7 2))
(assert
 (= cell_1_8 1))
(assert
 (= cell_2_2 2))
(assert
 (= cell_2_3 1))
(assert
 (= cell_3_5 1))
(assert
 (= cell_3_6 2))
(assert
 (= cell_4_1 2))
(assert
 (= cell_4_2 1))
(assert
 (= cell_5_7 1))
(assert
 (= cell_5_9 2))
(assert
 (= cell_6_4 2))
(assert
 (= cell_6_6 1))
(assert
 (= cell_7_1 1))
(assert
 (= cell_7_5 2))
(assert
 (= cell_8_3 2))
(assert
 (= cell_8_4 1))
(assert
 (= cell_9_9 1))
(assert
 (let (($x2858 (= cell_1_1 9)))
 (let (($x2155 (= cell_1_1 8)))
 (let (($x3987 (= cell_1_1 7)))
 (let (($x1250 (= cell_1_1 6)))
 (let (($x1997 (= cell_1_1 5)))
 (let (($x304 (= cell_1_1 4)))
 (let (($x2876 (= cell_1_1 3)))
 (let (($x2439 (= cell_1_1 2)))
 (let (($x2785 (= cell_1_1 1)))
 (or $x2785 $x2439 $x2876 $x304 $x1997 $x1250 $x3987 $x2155 $x2858)))))))))))
(assert
 (let (($x243 (= cell_2_1 9)))
 (let (($x2081 (= cell_2_1 8)))
 (let (($x3999 (= cell_2_1 7)))
 (let (($x4166 (= cell_2_1 6)))
 (let (($x7322 (= cell_2_1 5)))
 (let (($x2703 (= cell_2_1 4)))
 (let (($x7866 (= cell_2_1 3)))
 (let (($x2142 (= cell_2_1 2)))
 (let (($x2197 (= cell_2_1 1)))
 (or $x2197 $x2142 $x7866 $x2703 $x7322 $x4166 $x3999 $x2081 $x243)))))))))))
(assert
 (let (($x3827 (= cell_3_1 9)))
 (let (($x938 (= cell_3_1 8)))
 (let (($x662 (= cell_3_1 7)))
 (let (($x4180 (= cell_3_1 6)))
 (let (($x1135 (= cell_3_1 5)))
 (let (($x3050 (= cell_3_1 4)))
 (let (($x948 (= cell_3_1 3)))
 (let (($x1675 (= cell_3_1 2)))
 (let (($x365 (= cell_3_1 1)))
 (or $x365 $x1675 $x948 $x3050 $x1135 $x4180 $x662 $x938 $x3827)))))))))))
(assert
 (let (($x1451 (= cell_4_1 2)))
 (or (= cell_4_1 1) $x1451 (= cell_4_1 3) (= cell_4_1 4) (= cell_4_1 5) (= cell_4_1 6) (= cell_4_1 7) (= cell_4_1 8) (= cell_4_1 9))))
(assert
 (let (($x3983 (= cell_5_1 9)))
 (let (($x1334 (= cell_5_1 8)))
 (let (($x484 (= cell_5_1 7)))
 (let (($x1373 (= cell_5_1 6)))
 (let (($x1307 (= cell_5_1 5)))
 (let (($x2930 (= cell_5_1 4)))
 (let (($x1019 (= cell_5_1 3)))
 (let (($x7387 (= cell_5_1 2)))
 (let (($x7323 (= cell_5_1 1)))
 (or $x7323 $x7387 $x1019 $x2930 $x1307 $x1373 $x484 $x1334 $x3983)))))))))))
(assert
 (let (($x1936 (= cell_6_1 9)))
 (let (($x4210 (= cell_6_1 8)))
 (let (($x3394 (= cell_6_1 7)))
 (let (($x2406 (= cell_6_1 6)))
 (let (($x2308 (= cell_6_1 5)))
 (let (($x50 (= cell_6_1 4)))
 (let (($x979 (= cell_6_1 3)))
 (let (($x505 (= cell_6_1 2)))
 (let (($x966 (= cell_6_1 1)))
 (or $x966 $x505 $x979 $x50 $x2308 $x2406 $x3394 $x4210 $x1936)))))))))))
(assert
 (let (($x6865 (= cell_7_1 1)))
 (or $x6865 (= cell_7_1 2) (= cell_7_1 3) (= cell_7_1 4) (= cell_7_1 5) (= cell_7_1 6) (= cell_7_1 7) (= cell_7_1 8) (= cell_7_1 9))))
(assert
 (let (($x2336 (= cell_8_1 9)))
 (let (($x1817 (= cell_8_1 8)))
 (let (($x712 (= cell_8_1 7)))
 (let (($x2949 (= cell_8_1 6)))
 (let (($x930 (= cell_8_1 5)))
 (let (($x3149 (= cell_8_1 4)))
 (let (($x950 (= cell_8_1 3)))
 (let (($x1103 (= cell_8_1 2)))
 (let (($x3021 (= cell_8_1 1)))
 (or $x3021 $x1103 $x950 $x3149 $x930 $x2949 $x712 $x1817 $x2336)))))))))))
(assert
 (let (($x2377 (= cell_9_1 9)))
 (let (($x175 (= cell_9_1 8)))
 (let (($x2359 (= cell_9_1 7)))
 (let (($x561 (= cell_9_1 6)))
 (let (($x1819 (= cell_9_1 5)))
 (let (($x7301 (= cell_9_1 4)))
 (let (($x3298 (= cell_9_1 3)))
 (let (($x3128 (= cell_9_1 2)))
 (let (($x3449 (= cell_9_1 1)))
 (or $x3449 $x3128 $x3298 $x7301 $x1819 $x561 $x2359 $x175 $x2377)))))))))))
(assert
 (let (($x2518 (= cell_1_2 9)))
 (let (($x1052 (= cell_1_2 8)))
 (let (($x2344 (= cell_1_2 7)))
 (let (($x102 (= cell_1_2 6)))
 (let (($x236 (= cell_1_2 5)))
 (let (($x1858 (= cell_1_2 4)))
 (let (($x2162 (= cell_1_2 3)))
 (let (($x650 (= cell_1_2 2)))
 (let (($x3786 (= cell_1_2 1)))
 (or $x3786 $x650 $x2162 $x1858 $x236 $x102 $x2344 $x1052 $x2518)))))))))))
(assert
 (let (($x1309 (= cell_2_2 2)))
 (or (= cell_2_2 1) $x1309 (= cell_2_2 3) (= cell_2_2 4) (= cell_2_2 5) (= cell_2_2 6) (= cell_2_2 7) (= cell_2_2 8) (= cell_2_2 9))))
(assert
 (let (($x4194 (= cell_3_2 9)))
 (let (($x2632 (= cell_3_2 8)))
 (let (($x1233 (= cell_3_2 7)))
 (let (($x7756 (= cell_3_2 6)))
 (let (($x1623 (= cell_3_2 5)))
 (let (($x4035 (= cell_3_2 4)))
 (let (($x1998 (= cell_3_2 3)))
 (let (($x3562 (= cell_3_2 2)))
 (let (($x2242 (= cell_3_2 1)))
 (or $x2242 $x3562 $x1998 $x4035 $x1623 $x7756 $x1233 $x2632 $x4194)))))))))))
(assert
 (let (($x2025 (= cell_4_2 1)))
 (or $x2025 (= cell_4_2 2) (= cell_4_2 3) (= cell_4_2 4) (= cell_4_2 5) (= cell_4_2 6) (= cell_4_2 7) (= cell_4_2 8) (= cell_4_2 9))))
(assert
 (let (($x1657 (= cell_5_2 9)))
 (let (($x1370 (= cell_5_2 8)))
 (let (($x1848 (= cell_5_2 7)))
 (let (($x3334 (= cell_5_2 6)))
 (let (($x1463 (= cell_5_2 5)))
 (let (($x2345 (= cell_5_2 4)))
 (let (($x2975 (= cell_5_2 3)))
 (let (($x3811 (= cell_5_2 2)))
 (let (($x7825 (= cell_5_2 1)))
 (or $x7825 $x3811 $x2975 $x2345 $x1463 $x3334 $x1848 $x1370 $x1657)))))))))))
(assert
 (let (($x2872 (= cell_6_2 9)))
 (let (($x2349 (= cell_6_2 8)))
 (let (($x3400 (= cell_6_2 7)))
 (let (($x6629 (= cell_6_2 6)))
 (let (($x3434 (= cell_6_2 5)))
 (let (($x2620 (= cell_6_2 4)))
 (let (($x2658 (= cell_6_2 3)))
 (let (($x2218 (= cell_6_2 2)))
 (let (($x1234 (= cell_6_2 1)))
 (or $x1234 $x2218 $x2658 $x2620 $x3434 $x6629 $x3400 $x2349 $x2872)))))))))))
(assert
 (let (($x1994 (= cell_7_2 9)))
 (let (($x2814 (= cell_7_2 8)))
 (let (($x3290 (= cell_7_2 7)))
 (let (($x1461 (= cell_7_2 6)))
 (let (($x4018 (= cell_7_2 5)))
 (let (($x281 (= cell_7_2 4)))
 (let (($x3799 (= cell_7_2 3)))
 (let (($x1555 (= cell_7_2 2)))
 (let (($x1010 (= cell_7_2 1)))
 (or $x1010 $x1555 $x3799 $x281 $x4018 $x1461 $x3290 $x2814 $x1994)))))))))))
(assert
 (let (($x7404 (= cell_8_2 9)))
 (let (($x583 (= cell_8_2 8)))
 (let (($x4246 (= cell_8_2 7)))
 (let (($x1224 (= cell_8_2 6)))
 (let (($x992 (= cell_8_2 5)))
 (let (($x8013 (= cell_8_2 4)))
 (let (($x1466 (= cell_8_2 3)))
 (let (($x4125 (= cell_8_2 2)))
 (let (($x7330 (= cell_8_2 1)))
 (or $x7330 $x4125 $x1466 $x8013 $x992 $x1224 $x4246 $x583 $x7404)))))))))))
(assert
 (let (($x2039 (= cell_9_2 9)))
 (let (($x3271 (= cell_9_2 8)))
 (let (($x2084 (= cell_9_2 7)))
 (let (($x2035 (= cell_9_2 6)))
 (let (($x781 (= cell_9_2 5)))
 (let (($x3626 (= cell_9_2 4)))
 (let (($x1712 (= cell_9_2 3)))
 (let (($x1553 (= cell_9_2 2)))
 (let (($x2163 (= cell_9_2 1)))
 (or $x2163 $x1553 $x1712 $x3626 $x781 $x2035 $x2084 $x3271 $x2039)))))))))))
(assert
 (let (($x2926 (= cell_1_3 9)))
 (let (($x549 (= cell_1_3 8)))
 (let (($x2648 (= cell_1_3 7)))
 (let (($x1182 (= cell_1_3 6)))
 (let (($x757 (= cell_1_3 5)))
 (let (($x2450 (= cell_1_3 4)))
 (let (($x799 (= cell_1_3 3)))
 (let (($x885 (= cell_1_3 2)))
 (let (($x7767 (= cell_1_3 1)))
 (or $x7767 $x885 $x799 $x2450 $x757 $x1182 $x2648 $x549 $x2926)))))))))))
(assert
 (let (($x1276 (= cell_2_3 1)))
 (or $x1276 (= cell_2_3 2) (= cell_2_3 3) (= cell_2_3 4) (= cell_2_3 5) (= cell_2_3 6) (= cell_2_3 7) (= cell_2_3 8) (= cell_2_3 9))))
(assert
 (let (($x3226 (= cell_3_3 9)))
 (let (($x2102 (= cell_3_3 8)))
 (let (($x611 (= cell_3_3 7)))
 (let (($x1946 (= cell_3_3 6)))
 (let (($x1132 (= cell_3_3 5)))
 (let (($x745 (= cell_3_3 4)))
 (let (($x3947 (= cell_3_3 3)))
 (let (($x157 (= cell_3_3 2)))
 (let (($x1102 (= cell_3_3 1)))
 (or $x1102 $x157 $x3947 $x745 $x1132 $x1946 $x611 $x2102 $x3226)))))))))))
(assert
 (let (($x616 (= cell_4_3 9)))
 (let (($x3482 (= cell_4_3 8)))
 (let (($x2623 (= cell_4_3 7)))
 (let (($x2798 (= cell_4_3 6)))
 (let (($x3438 (= cell_4_3 5)))
 (let (($x44 (= cell_4_3 4)))
 (let (($x3210 (= cell_4_3 3)))
 (let (($x1735 (= cell_4_3 2)))
 (let (($x7852 (= cell_4_3 1)))
 (or $x7852 $x1735 $x3210 $x44 $x3438 $x2798 $x2623 $x3482 $x616)))))))))))
(assert
 (let (($x1171 (= cell_5_3 9)))
 (let (($x1532 (= cell_5_3 8)))
 (let (($x878 (= cell_5_3 7)))
 (let (($x2630 (= cell_5_3 6)))
 (let (($x4229 (= cell_5_3 5)))
 (let (($x3250 (= cell_5_3 4)))
 (let (($x2980 (= cell_5_3 3)))
 (let (($x4167 (= cell_5_3 2)))
 (let (($x3665 (= cell_5_3 1)))
 (or $x3665 $x4167 $x2980 $x3250 $x4229 $x2630 $x878 $x1532 $x1171)))))))))))
(assert
 (let (($x2937 (= cell_6_3 9)))
 (let (($x606 (= cell_6_3 8)))
 (let (($x1298 (= cell_6_3 7)))
 (let (($x6952 (= cell_6_3 6)))
 (let (($x1645 (= cell_6_3 5)))
 (let (($x3230 (= cell_6_3 4)))
 (let (($x1707 (= cell_6_3 3)))
 (let (($x1722 (= cell_6_3 2)))
 (let (($x2927 (= cell_6_3 1)))
 (or $x2927 $x1722 $x1707 $x3230 $x1645 $x6952 $x1298 $x606 $x2937)))))))))))
(assert
 (let (($x2762 (= cell_7_3 9)))
 (let (($x7428 (= cell_7_3 8)))
 (let (($x1876 (= cell_7_3 7)))
 (let (($x870 (= cell_7_3 6)))
 (let (($x1656 (= cell_7_3 5)))
 (let (($x873 (= cell_7_3 4)))
 (let (($x2734 (= cell_7_3 3)))
 (let (($x2914 (= cell_7_3 2)))
 (let (($x3558 (= cell_7_3 1)))
 (or $x3558 $x2914 $x2734 $x873 $x1656 $x870 $x1876 $x7428 $x2762)))))))))))
(assert
 (let (($x1721 (= cell_8_3 2)))
 (or (= cell_8_3 1) $x1721 (= cell_8_3 3) (= cell_8_3 4) (= cell_8_3 5) (= cell_8_3 6) (= cell_8_3 7) (= cell_8_3 8) (= cell_8_3 9))))
(assert
 (let (($x1806 (= cell_9_3 9)))
 (let (($x1100 (= cell_9_3 8)))
 (let (($x2149 (= cell_9_3 7)))
 (let (($x2772 (= cell_9_3 6)))
 (let (($x3132 (= cell_9_3 5)))
 (let (($x1348 (= cell_9_3 4)))
 (let (($x1843 (= cell_9_3 3)))
 (let (($x2232 (= cell_9_3 2)))
 (let (($x393 (= cell_9_3 1)))
 (or $x393 $x2232 $x1843 $x1348 $x3132 $x2772 $x2149 $x1100 $x1806)))))))))))
(assert
 (let (($x7047 (= cell_1_4 9)))
 (let (($x2318 (= cell_1_4 8)))
 (let (($x1591 (= cell_1_4 7)))
 (let (($x926 (= cell_1_4 6)))
 (let (($x245 (= cell_1_4 5)))
 (let (($x3737 (= cell_1_4 4)))
 (let (($x1361 (= cell_1_4 3)))
 (let (($x521 (= cell_1_4 2)))
 (let (($x3073 (= cell_1_4 1)))
 (or $x3073 $x521 $x1361 $x3737 $x245 $x926 $x1591 $x2318 $x7047)))))))))))
(assert
 (let (($x837 (= cell_2_4 9)))
 (let (($x7783 (= cell_2_4 8)))
 (let (($x1138 (= cell_2_4 7)))
 (let (($x1664 (= cell_2_4 6)))
 (let (($x2066 (= cell_2_4 5)))
 (let (($x3614 (= cell_2_4 4)))
 (let (($x911 (= cell_2_4 3)))
 (let (($x2405 (= cell_2_4 2)))
 (let (($x728 (= cell_2_4 1)))
 (or $x728 $x2405 $x911 $x3614 $x2066 $x1664 $x1138 $x7783 $x837)))))))))))
(assert
 (let (($x2657 (= cell_3_4 9)))
 (let (($x1584 (= cell_3_4 8)))
 (let (($x1862 (= cell_3_4 7)))
 (let (($x537 (= cell_3_4 6)))
 (let (($x1514 (= cell_3_4 5)))
 (let (($x1110 (= cell_3_4 4)))
 (let (($x1836 (= cell_3_4 3)))
 (let (($x962 (= cell_3_4 2)))
 (let (($x2352 (= cell_3_4 1)))
 (or $x2352 $x962 $x1836 $x1110 $x1514 $x537 $x1862 $x1584 $x2657)))))))))))
(assert
 (let (($x4049 (= cell_4_4 9)))
 (let (($x433 (= cell_4_4 8)))
 (let (($x1568 (= cell_4_4 7)))
 (let (($x254 (= cell_4_4 6)))
 (let (($x2786 (= cell_4_4 5)))
 (let (($x2810 (= cell_4_4 4)))
 (let (($x1528 (= cell_4_4 3)))
 (let (($x3356 (= cell_4_4 2)))
 (let (($x485 (= cell_4_4 1)))
 (or $x485 $x3356 $x1528 $x2810 $x2786 $x254 $x1568 $x433 $x4049)))))))))))
(assert
 (let (($x430 (= cell_5_4 9)))
 (let (($x1821 (= cell_5_4 8)))
 (let (($x1652 (= cell_5_4 7)))
 (let (($x1146 (= cell_5_4 6)))
 (let (($x1969 (= cell_5_4 5)))
 (let (($x1024 (= cell_5_4 4)))
 (let (($x783 (= cell_5_4 3)))
 (let (($x1697 (= cell_5_4 2)))
 (let (($x990 (= cell_5_4 1)))
 (or $x990 $x1697 $x783 $x1024 $x1969 $x1146 $x1652 $x1821 $x430)))))))))))
(assert
 (let (($x403 (= cell_6_4 2)))
 (or (= cell_6_4 1) $x403 (= cell_6_4 3) (= cell_6_4 4) (= cell_6_4 5) (= cell_6_4 6) (= cell_6_4 7) (= cell_6_4 8) (= cell_6_4 9))))
(assert
 (let (($x2156 (= cell_7_4 9)))
 (let (($x323 (= cell_7_4 8)))
 (let (($x2044 (= cell_7_4 7)))
 (let (($x2836 (= cell_7_4 6)))
 (let (($x3556 (= cell_7_4 5)))
 (let (($x1763 (= cell_7_4 4)))
 (let (($x1378 (= cell_7_4 3)))
 (let (($x1593 (= cell_7_4 2)))
 (let (($x7319 (= cell_7_4 1)))
 (or $x7319 $x1593 $x1378 $x1763 $x3556 $x2836 $x2044 $x323 $x2156)))))))))))
(assert
 (let (($x2434 (= cell_8_4 1)))
 (or $x2434 (= cell_8_4 2) (= cell_8_4 3) (= cell_8_4 4) (= cell_8_4 5) (= cell_8_4 6) (= cell_8_4 7) (= cell_8_4 8) (= cell_8_4 9))))
(assert
 (let (($x6753 (= cell_9_4 9)))
 (let (($x2539 (= cell_9_4 8)))
 (let (($x3177 (= cell_9_4 7)))
 (let (($x1834 (= cell_9_4 6)))
 (let (($x597 (= cell_9_4 5)))
 (let (($x1904 (= cell_9_4 4)))
 (let (($x2045 (= cell_9_4 3)))
 (let (($x2793 (= cell_9_4 2)))
 (let (($x1267 (= cell_9_4 1)))
 (or $x1267 $x2793 $x2045 $x1904 $x597 $x1834 $x3177 $x2539 $x6753)))))))))))
(assert
 (let (($x1016 (= cell_1_5 9)))
 (let (($x2732 (= cell_1_5 8)))
 (let (($x290 (= cell_1_5 7)))
 (let (($x3165 (= cell_1_5 6)))
 (let (($x642 (= cell_1_5 5)))
 (let (($x1335 (= cell_1_5 4)))
 (let (($x1737 (= cell_1_5 3)))
 (let (($x1883 (= cell_1_5 2)))
 (let (($x79 (= cell_1_5 1)))
 (or $x79 $x1883 $x1737 $x1335 $x642 $x3165 $x290 $x2732 $x1016)))))))))))
(assert
 (let (($x3082 (= cell_2_5 9)))
 (let (($x3879 (= cell_2_5 8)))
 (let (($x1018 (= cell_2_5 7)))
 (let (($x2750 (= cell_2_5 6)))
 (let (($x3293 (= cell_2_5 5)))
 (let (($x2361 (= cell_2_5 4)))
 (let (($x1566 (= cell_2_5 3)))
 (let (($x1547 (= cell_2_5 2)))
 (let (($x3561 (= cell_2_5 1)))
 (or $x3561 $x1547 $x1566 $x2361 $x3293 $x2750 $x1018 $x3879 $x3082)))))))))))
(assert
 (let (($x2086 (= cell_3_5 1)))
 (or $x2086 (= cell_3_5 2) (= cell_3_5 3) (= cell_3_5 4) (= cell_3_5 5) (= cell_3_5 6) (= cell_3_5 7) (= cell_3_5 8) (= cell_3_5 9))))
(assert
 (let (($x4083 (= cell_4_5 9)))
 (let (($x3214 (= cell_4_5 8)))
 (let (($x928 (= cell_4_5 7)))
 (let (($x3932 (= cell_4_5 6)))
 (let (($x1217 (= cell_4_5 5)))
 (let (($x2773 (= cell_4_5 4)))
 (let (($x369 (= cell_4_5 3)))
 (let (($x817 (= cell_4_5 2)))
 (let (($x935 (= cell_4_5 1)))
 (or $x935 $x817 $x369 $x2773 $x1217 $x3932 $x928 $x3214 $x4083)))))))))))
(assert
 (let (($x333 (= cell_5_5 9)))
 (let (($x2283 (= cell_5_5 8)))
 (let (($x1496 (= cell_5_5 7)))
 (let (($x279 (= cell_5_5 6)))
 (let (($x1747 (= cell_5_5 5)))
 (let (($x3203 (= cell_5_5 4)))
 (let (($x4150 (= cell_5_5 3)))
 (let (($x7963 (= cell_5_5 2)))
 (let (($x3295 (= cell_5_5 1)))
 (or $x3295 $x7963 $x4150 $x3203 $x1747 $x279 $x1496 $x2283 $x333)))))))))))
(assert
 (let (($x382 (= cell_6_5 9)))
 (let (($x2671 (= cell_6_5 8)))
 (let (($x2161 (= cell_6_5 7)))
 (let (($x2393 (= cell_6_5 6)))
 (let (($x886 (= cell_6_5 5)))
 (let (($x3115 (= cell_6_5 4)))
 (let (($x3062 (= cell_6_5 3)))
 (let (($x4118 (= cell_6_5 2)))
 (let (($x2214 (= cell_6_5 1)))
 (or $x2214 $x4118 $x3062 $x3115 $x886 $x2393 $x2161 $x2671 $x382)))))))))))
(assert
 (let (($x3773 (= cell_7_5 2)))
 (or (= cell_7_5 1) $x3773 (= cell_7_5 3) (= cell_7_5 4) (= cell_7_5 5) (= cell_7_5 6) (= cell_7_5 7) (= cell_7_5 8) (= cell_7_5 9))))
(assert
 (let (($x1296 (= cell_8_5 2)))
 (let (($x7633 (= cell_8_5 1)))
 (or $x7633 $x1296 (= cell_8_5 3) (= cell_8_5 4) (= cell_8_5 5) (= cell_8_5 6) (= cell_8_5 7) (= cell_8_5 8) (= cell_8_5 9)))))
(assert
 (let (($x1762 (= cell_9_5 9)))
 (let (($x31 (= cell_9_5 8)))
 (let (($x270 (= cell_9_5 7)))
 (let (($x4132 (= cell_9_5 6)))
 (let (($x3943 (= cell_9_5 5)))
 (let (($x2494 (= cell_9_5 4)))
 (let (($x2064 (= cell_9_5 3)))
 (let (($x528 (= cell_9_5 2)))
 (let (($x1991 (= cell_9_5 1)))
 (or $x1991 $x528 $x2064 $x2494 $x3943 $x4132 $x270 $x31 $x1762)))))))))))
(assert
 (let (($x3654 (= cell_1_6 9)))
 (let (($x2302 (= cell_1_6 8)))
 (let (($x3420 (= cell_1_6 7)))
 (let (($x1541 (= cell_1_6 6)))
 (let (($x2187 (= cell_1_6 5)))
 (let (($x7693 (= cell_1_6 4)))
 (let (($x631 (= cell_1_6 3)))
 (let (($x1462 (= cell_1_6 2)))
 (let (($x1832 (= cell_1_6 1)))
 (or $x1832 $x1462 $x631 $x7693 $x2187 $x1541 $x3420 $x2302 $x3654)))))))))))
(assert
 (let (($x1516 (= cell_2_6 9)))
 (let (($x1574 (= cell_2_6 8)))
 (let (($x4239 (= cell_2_6 7)))
 (let (($x3225 (= cell_2_6 6)))
 (let (($x2199 (= cell_2_6 5)))
 (let (($x4124 (= cell_2_6 4)))
 (let (($x6581 (= cell_2_6 3)))
 (let (($x2890 (= cell_2_6 2)))
 (let (($x1120 (= cell_2_6 1)))
 (or $x1120 $x2890 $x6581 $x4124 $x2199 $x3225 $x4239 $x1574 $x1516)))))))))))
(assert
 (let (($x2475 (= cell_3_6 2)))
 (or (= cell_3_6 1) $x2475 (= cell_3_6 3) (= cell_3_6 4) (= cell_3_6 5) (= cell_3_6 6) (= cell_3_6 7) (= cell_3_6 8) (= cell_3_6 9))))
(assert
 (let (($x219 (= cell_4_6 9)))
 (let (($x2446 (= cell_4_6 8)))
 (let (($x1210 (= cell_4_6 7)))
 (let (($x1168 (= cell_4_6 6)))
 (let (($x3769 (= cell_4_6 5)))
 (let (($x3833 (= cell_4_6 4)))
 (let (($x3779 (= cell_4_6 3)))
 (let (($x3762 (= cell_4_6 2)))
 (let (($x4159 (= cell_4_6 1)))
 (or $x4159 $x3762 $x3779 $x3833 $x3769 $x1168 $x1210 $x2446 $x219)))))))))))
(assert
 (let (($x1439 (= cell_5_6 9)))
 (let (($x2674 (= cell_5_6 8)))
 (let (($x3716 (= cell_5_6 7)))
 (let (($x4179 (= cell_5_6 6)))
 (let (($x3080 (= cell_5_6 5)))
 (let (($x2516 (= cell_5_6 4)))
 (let (($x7764 (= cell_5_6 3)))
 (let (($x2235 (= cell_5_6 2)))
 (let (($x3926 (= cell_5_6 1)))
 (or $x3926 $x2235 $x7764 $x2516 $x3080 $x4179 $x3716 $x2674 $x1439)))))))))))
(assert
 (let (($x1530 (= cell_6_6 1)))
 (or $x1530 (= cell_6_6 2) (= cell_6_6 3) (= cell_6_6 4) (= cell_6_6 5) (= cell_6_6 6) (= cell_6_6 7) (= cell_6_6 8) (= cell_6_6 9))))
(assert
 (let (($x222 (= cell_7_6 9)))
 (let (($x2800 (= cell_7_6 8)))
 (let (($x3194 (= cell_7_6 7)))
 (let (($x4095 (= cell_7_6 6)))
 (let (($x1810 (= cell_7_6 5)))
 (let (($x466 (= cell_7_6 4)))
 (let (($x1544 (= cell_7_6 3)))
 (let (($x1838 (= cell_7_6 2)))
 (let (($x723 (= cell_7_6 1)))
 (or $x723 $x1838 $x1544 $x466 $x1810 $x4095 $x3194 $x2800 $x222)))))))))))
(assert
 (let (($x415 (= cell_8_6 2)))
 (let (($x2282 (= cell_8_6 1)))
 (or $x2282 $x415 (= cell_8_6 3) (= cell_8_6 4) (= cell_8_6 5) (= cell_8_6 6) (= cell_8_6 7) (= cell_8_6 8) (= cell_8_6 9)))))
(assert
 (let (($x1480 (= cell_9_6 9)))
 (let (($x3682 (= cell_9_6 8)))
 (let (($x701 (= cell_9_6 7)))
 (let (($x2940 (= cell_9_6 6)))
 (let (($x3492 (= cell_9_6 5)))
 (let (($x2069 (= cell_9_6 4)))
 (let (($x1849 (= cell_9_6 3)))
 (let (($x300 (= cell_9_6 2)))
 (let (($x644 (= cell_9_6 1)))
 (or $x644 $x300 $x1849 $x2069 $x3492 $x2940 $x701 $x3682 $x1480)))))))))))
(assert
 (let (($x1670 (= cell_1_7 2)))
 (or (= cell_1_7 1) $x1670 (= cell_1_7 3) (= cell_1_7 4) (= cell_1_7 5) (= cell_1_7 6) (= cell_1_7 7) (= cell_1_7 8) (= cell_1_7 9))))
(assert
 (let (($x2754 (= cell_2_7 9)))
 (let (($x2795 (= cell_2_7 8)))
 (let (($x982 (= cell_2_7 7)))
 (let (($x2010 (= cell_2_7 6)))
 (let (($x3336 (= cell_2_7 5)))
 (let (($x3048 (= cell_2_7 4)))
 (let (($x2264 (= cell_2_7 3)))
 (let (($x812 (= cell_2_7 2)))
 (let (($x7671 (= cell_2_7 1)))
 (or $x7671 $x812 $x2264 $x3048 $x3336 $x2010 $x982 $x2795 $x2754)))))))))))
(assert
 (let (($x2258 (= cell_3_7 9)))
 (let (($x989 (= cell_3_7 8)))
 (let (($x2462 (= cell_3_7 7)))
 (let (($x6722 (= cell_3_7 6)))
 (let (($x3517 (= cell_3_7 5)))
 (let (($x3059 (= cell_3_7 4)))
 (let (($x1776 (= cell_3_7 3)))
 (let (($x7519 (= cell_3_7 2)))
 (let (($x914 (= cell_3_7 1)))
 (or $x914 $x7519 $x1776 $x3059 $x3517 $x6722 $x2462 $x989 $x2258)))))))))))
(assert
 (let (($x1988 (= cell_4_7 9)))
 (let (($x4067 (= cell_4_7 8)))
 (let (($x1422 (= cell_4_7 7)))
 (let (($x1412 (= cell_4_7 6)))
 (let (($x621 (= cell_4_7 5)))
 (let (($x2101 (= cell_4_7 4)))
 (let (($x7986 (= cell_4_7 3)))
 (let (($x1338 (= cell_4_7 2)))
 (let (($x2611 (= cell_4_7 1)))
 (or $x2611 $x1338 $x7986 $x2101 $x621 $x1412 $x1422 $x4067 $x1988)))))))))))
(assert
 (let (($x672 (= cell_5_7 1)))
 (or $x672 (= cell_5_7 2) (= cell_5_7 3) (= cell_5_7 4) (= cell_5_7 5) (= cell_5_7 6) (= cell_5_7 7) (= cell_5_7 8) (= cell_5_7 9))))
(assert
 (let (($x2305 (= cell_6_7 2)))
 (let (($x1319 (= cell_6_7 1)))
 (or $x1319 $x2305 (= cell_6_7 3) (= cell_6_7 4) (= cell_6_7 5) (= cell_6_7 6) (= cell_6_7 7) (= cell_6_7 8) (= cell_6_7 9)))))
(assert
 (let (($x344 (= cell_7_7 9)))
 (let (($x627 (= cell_7_7 8)))
 (let (($x2297 (= cell_7_7 7)))
 (let (($x3430 (= cell_7_7 6)))
 (let (($x2551 (= cell_7_7 5)))
 (let (($x2355 (= cell_7_7 4)))
 (let (($x1410 (= cell_7_7 3)))
 (let (($x2481 (= cell_7_7 2)))
 (let (($x2407 (= cell_7_7 1)))
 (or $x2407 $x2481 $x1410 $x2355 $x2551 $x3430 $x2297 $x627 $x344)))))))))))
(assert
 (let (($x285 (= cell_8_7 9)))
 (let (($x2634 (= cell_8_7 8)))
 (let (($x2171 (= cell_8_7 7)))
 (let (($x2252 (= cell_8_7 6)))
 (let (($x1546 (= cell_8_7 5)))
 (let (($x4183 (= cell_8_7 4)))
 (let (($x2436 (= cell_8_7 3)))
 (let (($x1411 (= cell_8_7 2)))
 (let (($x1606 (= cell_8_7 1)))
 (or $x1606 $x1411 $x2436 $x4183 $x1546 $x2252 $x2171 $x2634 $x285)))))))))))
(assert
 (let (($x2029 (= cell_9_7 9)))
 (let (($x2037 (= cell_9_7 8)))
 (let (($x2608 (= cell_9_7 7)))
 (let (($x3684 (= cell_9_7 6)))
 (let (($x709 (= cell_9_7 5)))
 (let (($x7835 (= cell_9_7 4)))
 (let (($x2792 (= cell_9_7 3)))
 (let (($x284 (= cell_9_7 2)))
 (let (($x7515 (= cell_9_7 1)))
 (or $x7515 $x284 $x2792 $x7835 $x709 $x3684 $x2608 $x2037 $x2029)))))))))))
(assert
 (let (($x2414 (= cell_1_8 1)))
 (or $x2414 (= cell_1_8 2) (= cell_1_8 3) (= cell_1_8 4) (= cell_1_8 5) (= cell_1_8 6) (= cell_1_8 7) (= cell_1_8 8) (= cell_1_8 9))))
(assert
 (let (($x2588 (= cell_2_8 2)))
 (let (($x2497 (= cell_2_8 1)))
 (or $x2497 $x2588 (= cell_2_8 3) (= cell_2_8 4) (= cell_2_8 5) (= cell_2_8 6) (= cell_2_8 7) (= cell_2_8 8) (= cell_2_8 9)))))
(assert
 (let (($x3289 (= cell_3_8 9)))
 (let (($x509 (= cell_3_8 8)))
 (let (($x1984 (= cell_3_8 7)))
 (let (($x16 (= cell_3_8 6)))
 (let (($x2781 (= cell_3_8 5)))
 (let (($x2517 (= cell_3_8 4)))
 (let (($x2884 (= cell_3_8 3)))
 (let (($x2692 (= cell_3_8 2)))
 (let (($x7674 (= cell_3_8 1)))
 (or $x7674 $x2692 $x2884 $x2517 $x2781 $x16 $x1984 $x509 $x3289)))))))))))
(assert
 (let (($x2048 (= cell_4_8 9)))
 (let (($x3743 (= cell_4_8 8)))
 (let (($x2912 (= cell_4_8 7)))
 (let (($x3542 (= cell_4_8 6)))
 (let (($x565 (= cell_4_8 5)))
 (let (($x1884 (= cell_4_8 4)))
 (let (($x572 (= cell_4_8 3)))
 (let (($x1704 (= cell_4_8 2)))
 (let (($x1282 (= cell_4_8 1)))
 (or $x1282 $x1704 $x572 $x1884 $x565 $x3542 $x2912 $x3743 $x2048)))))))))))
(assert
 (let (($x1725 (= cell_5_8 9)))
 (let (($x4187 (= cell_5_8 8)))
 (let (($x1066 (= cell_5_8 7)))
 (let (($x3990 (= cell_5_8 6)))
 (let (($x3632 (= cell_5_8 5)))
 (let (($x38 (= cell_5_8 4)))
 (let (($x2298 (= cell_5_8 3)))
 (let (($x261 (= cell_5_8 2)))
 (let (($x1650 (= cell_5_8 1)))
 (or $x1650 $x261 $x2298 $x38 $x3632 $x3990 $x1066 $x4187 $x1725)))))))))))
(assert
 (let (($x2340 (= cell_6_8 2)))
 (let (($x1753 (= cell_6_8 1)))
 (or $x1753 $x2340 (= cell_6_8 3) (= cell_6_8 4) (= cell_6_8 5) (= cell_6_8 6) (= cell_6_8 7) (= cell_6_8 8) (= cell_6_8 9)))))
(assert
 (let (($x46 (= cell_7_8 9)))
 (let (($x1243 (= cell_7_8 8)))
 (let (($x342 (= cell_7_8 7)))
 (let (($x6859 (= cell_7_8 6)))
 (let (($x1536 (= cell_7_8 5)))
 (let (($x177 (= cell_7_8 4)))
 (let (($x439 (= cell_7_8 3)))
 (let (($x3667 (= cell_7_8 2)))
 (let (($x2556 (= cell_7_8 1)))
 (or $x2556 $x3667 $x439 $x177 $x1536 $x6859 $x342 $x1243 $x46)))))))))))
(assert
 (let (($x4162 (= cell_8_8 9)))
 (let (($x945 (= cell_8_8 8)))
 (let (($x2815 (= cell_8_8 7)))
 (let (($x2639 (= cell_8_8 6)))
 (let (($x2687 (= cell_8_8 5)))
 (let (($x575 (= cell_8_8 4)))
 (let (($x3144 (= cell_8_8 3)))
 (let (($x2774 (= cell_8_8 2)))
 (let (($x7329 (= cell_8_8 1)))
 (or $x7329 $x2774 $x3144 $x575 $x2687 $x2639 $x2815 $x945 $x4162)))))))))))
(assert
 (let (($x531 (= cell_9_8 9)))
 (let (($x3270 (= cell_9_8 8)))
 (let (($x3693 (= cell_9_8 7)))
 (let (($x520 (= cell_9_8 6)))
 (let (($x2105 (= cell_9_8 5)))
 (let (($x2157 (= cell_9_8 4)))
 (let (($x6733 (= cell_9_8 3)))
 (let (($x2183 (= cell_9_8 2)))
 (let (($x1678 (= cell_9_8 1)))
 (or $x1678 $x2183 $x6733 $x2157 $x2105 $x520 $x3693 $x3270 $x531)))))))))))
(assert
 (let (($x1423 (= cell_1_9 9)))
 (let (($x2284 (= cell_1_9 8)))
 (let (($x2188 (= cell_1_9 7)))
 (let (($x3468 (= cell_1_9 6)))
 (let (($x2685 (= cell_1_9 5)))
 (let (($x1856 (= cell_1_9 4)))
 (let (($x291 (= cell_1_9 3)))
 (let (($x3403 (= cell_1_9 2)))
 (let (($x3081 (= cell_1_9 1)))
 (or $x3081 $x3403 $x291 $x1856 $x2685 $x3468 $x2188 $x2284 $x1423)))))))))))
(assert
 (let (($x3358 (= cell_2_9 9)))
 (let (($x241 (= cell_2_9 8)))
 (let (($x2720 (= cell_2_9 7)))
 (let (($x3550 (= cell_2_9 6)))
 (let (($x1180 (= cell_2_9 5)))
 (let (($x3341 (= cell_2_9 4)))
 (let (($x774 (= cell_2_9 3)))
 (let (($x4115 (= cell_2_9 2)))
 (let (($x1952 (= cell_2_9 1)))
 (or $x1952 $x4115 $x774 $x3341 $x1180 $x3550 $x2720 $x241 $x3358)))))))))))
(assert
 (let (($x7770 (= cell_3_9 9)))
 (let (($x3709 (= cell_3_9 8)))
 (let (($x2041 (= cell_3_9 7)))
 (let (($x6784 (= cell_3_9 6)))
 (let (($x1418 (= cell_3_9 5)))
 (let (($x2740 (= cell_3_9 4)))
 (let (($x2227 (= cell_3_9 3)))
 (let (($x166 (= cell_3_9 2)))
 (let (($x576 (= cell_3_9 1)))
 (or $x576 $x166 $x2227 $x2740 $x1418 $x6784 $x2041 $x3709 $x7770)))))))))))
(assert
 (let (($x907 (= cell_4_9 9)))
 (let (($x2645 (= cell_4_9 8)))
 (let (($x958 (= cell_4_9 7)))
 (let (($x201 (= cell_4_9 6)))
 (let (($x6985 (= cell_4_9 5)))
 (let (($x3184 (= cell_4_9 4)))
 (let (($x2068 (= cell_4_9 3)))
 (let (($x1358 (= cell_4_9 2)))
 (let (($x3894 (= cell_4_9 1)))
 (or $x3894 $x1358 $x2068 $x3184 $x6985 $x201 $x958 $x2645 $x907)))))))))))
(assert
 (let (($x851 (= cell_5_9 2)))
 (or (= cell_5_9 1) $x851 (= cell_5_9 3) (= cell_5_9 4) (= cell_5_9 5) (= cell_5_9 6) (= cell_5_9 7) (= cell_5_9 8) (= cell_5_9 9))))
(assert
 (let (($x2270 (= cell_6_9 9)))
 (let (($x28 (= cell_6_9 8)))
 (let (($x4043 (= cell_6_9 7)))
 (let (($x661 (= cell_6_9 6)))
 (let (($x1699 (= cell_6_9 5)))
 (let (($x2346 (= cell_6_9 4)))
 (let (($x3855 (= cell_6_9 3)))
 (let (($x3661 (= cell_6_9 2)))
 (let (($x2429 (= cell_6_9 1)))
 (or $x2429 $x3661 $x3855 $x2346 $x1699 $x661 $x4043 $x28 $x2270)))))))))))
(assert
 (let (($x2129 (= cell_7_9 9)))
 (let (($x2739 (= cell_7_9 8)))
 (let (($x6618 (= cell_7_9 7)))
 (let (($x2317 (= cell_7_9 6)))
 (let (($x2853 (= cell_7_9 5)))
 (let (($x1868 (= cell_7_9 4)))
 (let (($x2633 (= cell_7_9 3)))
 (let (($x1621 (= cell_7_9 2)))
 (let (($x2421 (= cell_7_9 1)))
 (or $x2421 $x1621 $x2633 $x1868 $x2853 $x2317 $x6618 $x2739 $x2129)))))))))))
(assert
 (let (($x772 (= cell_8_9 9)))
 (let (($x2452 (= cell_8_9 8)))
 (let (($x527 (= cell_8_9 7)))
 (let (($x7530 (= cell_8_9 6)))
 (let (($x2337 (= cell_8_9 5)))
 (let (($x2376 (= cell_8_9 4)))
 (let (($x2259 (= cell_8_9 3)))
 (let (($x2811 (= cell_8_9 2)))
 (let (($x3279 (= cell_8_9 1)))
 (or $x3279 $x2811 $x2259 $x2376 $x2337 $x7530 $x527 $x2452 $x772)))))))))))
(assert
 (let (($x807 (= cell_9_9 1)))
 (or $x807 (= cell_9_9 2) (= cell_9_9 3) (= cell_9_9 4) (= cell_9_9 5) (= cell_9_9 6) (= cell_9_9 7) (= cell_9_9 8) (= cell_9_9 9))))
(assert
 (and (distinct cell_1_1 cell_1_2 cell_1_3 cell_1_4 cell_1_5 cell_1_6 cell_1_7 cell_1_8 cell_1_9) true))
(assert
 (and (distinct cell_2_1 cell_2_2 cell_2_3 cell_2_4 cell_2_5 cell_2_6 cell_2_7 cell_2_8 cell_2_9) true))
(assert
 (and (distinct cell_3_1 cell_3_2 cell_3_3 cell_3_4 cell_3_5 cell_3_6 cell_3_7 cell_3_8 cell_3_9) true))
(assert
 (and (distinct cell_4_1 cell_4_2 cell_4_3 cell_4_4 cell_4_5 cell_4_6 cell_4_7 cell_4_8 cell_4_9) true))
(assert
 (and (distinct cell_5_1 cell_5_2 cell_5_3 cell_5_4 cell_5_5 cell_5_6 cell_5_7 cell_5_8 cell_5_9) true))
(assert
 (and (distinct cell_6_1 cell_6_2 cell_6_3 cell_6_4 cell_6_5 cell_6_6 cell_6_7 cell_6_8 cell_6_9) true))
(assert
 (and (distinct cell_7_1 cell_7_2 cell_7_3 cell_7_4 cell_7_5 cell_7_6 cell_7_7 cell_7_8 cell_7_9) true))
(assert
 (and (distinct cell_8_1 cell_8_2 cell_8_3 cell_8_4 cell_8_5 cell_8_6 cell_8_7 cell_8_8 cell_8_9) true))
(assert
 (and (distinct cell_9_1 cell_9_2 cell_9_3 cell_9_4 cell_9_5 cell_9_6 cell_9_7 cell_9_8 cell_9_9) true))
(assert
 (and (distinct cell_1_1 cell_2_1 cell_3_1 cell_4_1 cell_5_1 cell_6_1 cell_7_1 cell_8_1 cell_9_1) true))
(assert
 (and (distinct cell_1_2 cell_2_2 cell_3_2 cell_4_2 cell_5_2 cell_6_2 cell_7_2 cell_8_2 cell_9_2) true))
(assert
 (and (distinct cell_1_3 cell_2_3 cell_3_3 cell_4_3 cell_5_3 cell_6_3 cell_7_3 cell_8_3 cell_9_3) true))
(assert
 (and (distinct cell_1_4 cell_2_4 cell_3_4 cell_4_4 cell_5_4 cell_6_4 cell_7_4 cell_8_4 cell_9_4) true))
(assert
 (and (distinct cell_1_5 cell_2_5 cell_3_5 cell_4_5 cell_5_5 cell_6_5 cell_7_5 cell_8_5 cell_9_5) true))
(assert
 (and (distinct cell_1_6 cell_2_6 cell_3_6 cell_4_6 cell_5_6 cell_6_6 cell_7_6 cell_8_6 cell_9_6) true))
(assert
 (and (distinct cell_1_7 cell_2_7 cell_3_7 cell_4_7 cell_5_7 cell_6_7 cell_7_7 cell_8_7 cell_9_7) true))
(assert
 (and (distinct cell_1_8 cell_2_8 cell_3_8 cell_4_8 cell_5_8 cell_6_8 cell_7_8 cell_8_8 cell_9_8) true))
(assert
 (and (distinct cell_1_9 cell_2_9 cell_3_9 cell_4_9 cell_5_9 cell_6_9 cell_7_9 cell_8_9 cell_9_9) true))
(assert
 (and (distinct cell_1_1 cell_1_2 cell_1_3 cell_2_1 cell_2_2 cell_2_3 cell_3_1 cell_3_2 cell_3_3) true))
(assert
 (and (distinct cell_1_4 cell_1_5 cell_1_6 cell_2_4 cell_2_5 cell_2_6 cell_3_4 cell_3_5 cell_3_6) true))
(assert
 (and (distinct cell_1_7 cell_1_8 cell_1_9 cell_2_7 cell_2_8 cell_2_9 cell_3_7 cell_3_8 cell_3_9) true))
(assert
 (and (distinct cell_4_1 cell_4_2 cell_4_3 cell_5_1 cell_5_2 cell_5_3 cell_6_1 cell_6_2 cell_6_3) true))
(assert
 (and (distinct cell_4_4 cell_4_5 cell_4_6 cell_5_4 cell_5_5 cell_5_6 cell_6_4 cell_6_5 cell_6_6) true))
(assert
 (and (distinct cell_4_7 cell_4_8 cell_4_9 cell_5_7 cell_5_8 cell_5_9 cell_6_7 cell_6_8 cell_6_9) true))
(assert
 (and (distinct cell_7_1 cell_7_2 cell_7_3 cell_8_1 cell_8_2 cell_8_3 cell_9_1 cell_9_2 cell_9_3) true))
(assert
 (and (distinct cell_7_4 cell_7_5 cell_7_6 cell_8_4 cell_8_5 cell_8_6 cell_9_4 cell_9_5 cell_9_6) true))
(assert
 (and (distinct cell_7_7 cell_7_8 cell_7_9 cell_8_7 cell_8_8 cell_8_9 cell_9_7 cell_9_8 cell_9_9) true))
(assert
 (let (($x1219 (and (distinct cell_5_9 cell_6_8 cell_7_7 cell_8_6) true)))
 (let (($x3686 (and (distinct cell_2_9 cell_3_8 cell_4_7 cell_5_6 cell_6_5 cell_7_4 cell_8_3 cell_9_2) true)))
 (let (($x1285 (and (distinct cell_1_8 cell_2_7 cell_3_6 cell_4_5 cell_5_4 cell_6_3 cell_7_2 cell_8_1) true)))
 (let (($x905 (and (distinct cell_1_5 cell_2_4 cell_3_3 cell_4_2) true)))
 (let (($x1232 (and (distinct cell_5_1 cell_6_2 cell_7_3 cell_8_4) true)))
 (let (($x209 (and (distinct cell_2_1 cell_3_2 cell_4_3 cell_5_4 cell_6_5 cell_7_6 cell_8_7 cell_9_8) true)))
 (let (($x206 (and (distinct cell_1_2 cell_2_3 cell_3_4 cell_4_5 cell_5_6 cell_6_7 cell_7_8 cell_8_9) true)))
 (let (($x2646 (and (distinct cell_1_5 cell_2_6 cell_3_7 cell_4_8) true)))
 (and $x2646 $x206 $x209 $x1232 $x905 $x1285 $x3686 $x1219))))))))))
(assert
 (= cell_9_8 2))
(check-sat)
